! ansys_pcm_m41_harm_m160_2026-09-24.inp
! Piezoelectric contour-mode (n = 0 radial) FE, Paper 5 monolithic ring (2026-09-24).
! Built by build_pcm_decks_2026-09-24.py. Do not hand-edit; rebuild.
! Pre-registration: CONTOUR_MODE_N0_DERIVATION_2026-09-24.md Sec 5.
! e31 = -4.1 (deck value -4.1E-3 in mm-N-s units) C/m^2 (sign printed by Duan 2005 / Liu 2002; physical PZT-4 e31 < 0). Harmonic, top face at 1 V, bottom grounded.
! Thin-plate model (probe_piezo_contour_n0_2026-09-24.py), radial modes:
!   m1  fr 1669.6949 Hz  fa 1852.4000 Hz  split +10.9424%  keff^2 0.18753
!   m2  fr 4293.5856 Hz  fa 4475.6457 Hz  split +4.2403%  keff^2 0.07970
!   m3  fr 7235.9906 Hz  fa 7258.1877 Hz  split +0.3068%  keff^2 0.00611
!   m4  fr 10443.1644 Hz  fa 10539.5779 Hz  split +0.9232%  keff^2 0.01821
!   m5  fr 13740.1209 Hz  fa 13752.8220 Hz  split +0.0924%  keff^2 0.00185
!   m6  fr 17072.2629 Hz  fa 17132.4077 Hz  split +0.3523%  keff^2 0.00701
! UNITS: mm-N-s-tonne, real volts; Hz; CHRG in mC.
! Do not put the MAPDL failure token in this file (queue grep false-fail).
! ============================================================
FINISH
/CLEAR,NOSTART
/TITLE, Contour-mode PZT-4 ring harm e31=m41 mesh 160x24 (2026-09-24)
RI     = 100.0
RO     = 600.0
H      = 10.0
TOL    = 1.0E-3
NDIV_R = 160
NDIV_Z = 24
NMODES = 30
C11E = 1.320E5
C12E = 7.100E4
C13E = 7.300E4
C33E = 1.150E5
C44E = 7.300E4
C66E = (C11E-C12E)/2
E31  = -4.1E-3
E33  = 1.41E-2
E15  = 1.05E-2
EPS0   = 8.854E-12
X11ABS = 7.124E-9
X33ABS = 5.841E-9
X11    = X11ABS/EPS0
X33    = X33ABS/EPS0
RHO_PZT = 7.500E-9
/PREP7
ET,1,PLANE223
KEYOPT,1,1,1001
KEYOPT,1,3,1
TB,ANEL,1,1,,0
TBDATA,1,C11E,C13E,C12E,0,0,0
TBDATA,7,C33E,C13E,0,0,0
TBDATA,12,C11E,0,0,0
TBDATA,16,C44E,0,0
TBDATA,19,C66E,0
TBDATA,21,C44E
TB,PIEZ,1
TBDATA,1,0,E31,0,0,E33,0
TBDATA,7,0,E31,0,E15,0,0
TBDATA,13,0,0,E15,0,0,0
MP,PERX,1,X11
MP,PERY,1,X33
MP,PERZ,1,X11
MP,DENS,1,RHO_PZT
RECTNG,RI,RO,-H,H
ASEL,S,AREA,,1
AATT,1,,1
LSLA,S
LSEL,R,LOC,X,RI
LESIZE,ALL,,,NDIV_Z,,,,,1
LSLA,S
LSEL,R,LOC,X,RO
LESIZE,ALL,,,NDIV_Z,,,,,1
LSLA,S
LSEL,R,LOC,Y,-H
LESIZE,ALL,,,NDIV_R,,,,,1
LSLA,S
LSEL,R,LOC,Y,H
LESIZE,ALL,,,NDIV_R,,,,,1
ALLSEL,ALL
ASEL,S,AREA,,1
MSHAPE,0,2D
MSHKEY,1
AMESH,ALL
ALLSEL,ALL
*GET,NELEM,ELEM,0,COUNT
*IF,NELEM,NE,NDIV_R*NDIV_Z,THEN
  *MSG,FATAL
Mapped mesh element count does not equal NDIV_R*NDIV_Z.
*ENDIF
FINISH
/SOLU
ANTYPE,HARMIC
HROPT,FULL
HROUT,OFF
OUTRES,NSOL,ALL
OUTRES,RSOL,ALL
KBC,1
EQSLV,SPARSE
NSEL,S,LOC,Y,-H-TOL,-H+TOL
D,ALL,VOLT,0
NSEL,S,LOC,Y,H-TOL,H+TOL
D,ALL,VOLT,1.0
ALLSEL,ALL
HARFRQ,1.000000000,1.000000000
NSUBST,1
LSWRITE,1
HARFRQ,834.847465904,834.847465904
NSUBST,1
LSWRITE,2
HARFRQ,1758.676467923,1758.676467923
NSUBST,1
LSWRITE,3
HARFRQ,2820.184029916,2820.184029916
NSUBST,1
LSWRITE,4
HARFRQ,5690.846166261,5690.846166261
NSUBST,1
LSWRITE,5

LSSOLVE,1,5
FINISH
/POST1
NSEL,S,LOC,Y,H-TOL,H+TOL
*GET,NTOP,NODE,0,COUNT
ALLSEL,ALL
*DIM,IDX,ARRAY,NTOP
*DIM,RT,ARRAY,NTOP
*DIM,FRQ,ARRAY,5
*DIM,LSN,ARRAY,5
! ---- load step 1 ----
*DIM,QR1,ARRAY,NTOP
*DIM,QI1,ARRAY,NTOP
SET,1,1,,0
*GET,FRQ(1),ACTIVE,0,SET,FREQ
LSN(1)=1
NSEL,S,LOC,Y,H-TOL,H+TOL
ND=0
*DO,I,1,NTOP
  ND=NDNEXT(ND)
  IDX(I)=I
  RT(I)=NX(ND)
  *GET,QR1(I),NODE,ND,RF,CHRG
*ENDDO
SET,1,1,,1
ND=0
*DO,I,1,NTOP
  ND=NDNEXT(ND)
  *GET,QI1(I),NODE,ND,RF,CHRG
*ENDDO
ALLSEL,ALL
*CFOPEN,ansys_pcm_m41_harm_m160_ls1,txt
*VWRITE
('i  r_top  QtopRe  QtopIm   [mm, mC]')
*VWRITE,IDX(1),RT(1),QR1(1),QI1(1)
(F6.0,1X,E20.12,1X,E20.12,1X,E20.12)
*CFCLOS
! ---- load step 2 ----
*DIM,QR2,ARRAY,NTOP
*DIM,QI2,ARRAY,NTOP
SET,2,1,,0
*GET,FRQ(2),ACTIVE,0,SET,FREQ
LSN(2)=2
NSEL,S,LOC,Y,H-TOL,H+TOL
ND=0
*DO,I,1,NTOP
  ND=NDNEXT(ND)
  IDX(I)=I
  RT(I)=NX(ND)
  *GET,QR2(I),NODE,ND,RF,CHRG
*ENDDO
SET,2,1,,1
ND=0
*DO,I,1,NTOP
  ND=NDNEXT(ND)
  *GET,QI2(I),NODE,ND,RF,CHRG
*ENDDO
ALLSEL,ALL
*CFOPEN,ansys_pcm_m41_harm_m160_ls2,txt
*VWRITE
('i  r_top  QtopRe  QtopIm   [mm, mC]')
*VWRITE,IDX(1),RT(1),QR2(1),QI2(1)
(F6.0,1X,E20.12,1X,E20.12,1X,E20.12)
*CFCLOS
! ---- load step 3 ----
*DIM,QR3,ARRAY,NTOP
*DIM,QI3,ARRAY,NTOP
SET,3,1,,0
*GET,FRQ(3),ACTIVE,0,SET,FREQ
LSN(3)=3
NSEL,S,LOC,Y,H-TOL,H+TOL
ND=0
*DO,I,1,NTOP
  ND=NDNEXT(ND)
  IDX(I)=I
  RT(I)=NX(ND)
  *GET,QR3(I),NODE,ND,RF,CHRG
*ENDDO
SET,3,1,,1
ND=0
*DO,I,1,NTOP
  ND=NDNEXT(ND)
  *GET,QI3(I),NODE,ND,RF,CHRG
*ENDDO
ALLSEL,ALL
*CFOPEN,ansys_pcm_m41_harm_m160_ls3,txt
*VWRITE
('i  r_top  QtopRe  QtopIm   [mm, mC]')
*VWRITE,IDX(1),RT(1),QR3(1),QI3(1)
(F6.0,1X,E20.12,1X,E20.12,1X,E20.12)
*CFCLOS
! ---- load step 4 ----
*DIM,QR4,ARRAY,NTOP
*DIM,QI4,ARRAY,NTOP
SET,4,1,,0
*GET,FRQ(4),ACTIVE,0,SET,FREQ
LSN(4)=4
NSEL,S,LOC,Y,H-TOL,H+TOL
ND=0
*DO,I,1,NTOP
  ND=NDNEXT(ND)
  IDX(I)=I
  RT(I)=NX(ND)
  *GET,QR4(I),NODE,ND,RF,CHRG
*ENDDO
SET,4,1,,1
ND=0
*DO,I,1,NTOP
  ND=NDNEXT(ND)
  *GET,QI4(I),NODE,ND,RF,CHRG
*ENDDO
ALLSEL,ALL
*CFOPEN,ansys_pcm_m41_harm_m160_ls4,txt
*VWRITE
('i  r_top  QtopRe  QtopIm   [mm, mC]')
*VWRITE,IDX(1),RT(1),QR4(1),QI4(1)
(F6.0,1X,E20.12,1X,E20.12,1X,E20.12)
*CFCLOS
! ---- load step 5 ----
*DIM,QR5,ARRAY,NTOP
*DIM,QI5,ARRAY,NTOP
SET,5,1,,0
*GET,FRQ(5),ACTIVE,0,SET,FREQ
LSN(5)=5
NSEL,S,LOC,Y,H-TOL,H+TOL
ND=0
*DO,I,1,NTOP
  ND=NDNEXT(ND)
  IDX(I)=I
  RT(I)=NX(ND)
  *GET,QR5(I),NODE,ND,RF,CHRG
*ENDDO
SET,5,1,,1
ND=0
*DO,I,1,NTOP
  ND=NDNEXT(ND)
  *GET,QI5(I),NODE,ND,RF,CHRG
*ENDDO
ALLSEL,ALL
*CFOPEN,ansys_pcm_m41_harm_m160_ls5,txt
*VWRITE
('i  r_top  QtopRe  QtopIm   [mm, mC]')
*VWRITE,IDX(1),RT(1),QR5(1),QI5(1)
(F6.0,1X,E20.12,1X,E20.12,1X,E20.12)
*CFCLOS

*CFOPEN,ansys_pcm_m41_harm_m160_freqs,txt
*VWRITE
('ls   freq_Hz')
*VWRITE,LSN(1),FRQ(1)
(F4.0,3X,E20.12)
*CFCLOS
FINISH
