! Generated by generate_r200_a50_nu030_ansys_decks.py
! IP FFFF  r0/2b=2.0  2T/pi=0.5  nu=0.30  NMODES=80

FINISH
/CLEAR,NOSTART
/TITLE, Free-free IP verify (nu=0.30) -- r200 (r0/2b=2) a50 (2T/pi=0.5, PHI=90deg)

R_i    = 6.000000
R_o    = 10.000000
PHI    = 90.000000
H      = 0.08
E_iso  = 210000000000.0
NU_iso = 0.3
RHO    = 7800.0
NDIV   = 64
NMODES = 80

/PREP7
LOCAL, 11, 1, 0,0,0
CSYS, 11
ET, 1, PLANE183
KEYOPT, 1, 3, 3
R, 1, H
MP, EX,1,E_iso
MP, PRXY,1,NU_iso
MP, DENS,1,RHO
CSYS, 0
PCIRC, R_i, R_o, 0, PHI
TYPE,1 $ MAT,1 $ REAL,1
CSYS, 11
LSEL, S, LOC, Y, 0  $ LSEL, A, LOC, Y, PHI
LESIZE, ALL, , , NDIV
LSEL, S, LOC, X, R_i $ LSEL, A, LOC, X, R_o
LESIZE, ALL, , , NDIV
ALLSEL, ALL
CSYS, 0
MSHKEY, 1 $ AMESH, ALL
! completely free (FFFF): no constraints
ALLSEL, ALL
FINISH

/SOLU
ANTYPE, MODAL
MODOPT, LANB, NMODES, -1.0, , , ON
MXPAND, NMODES, , , YES
SOLVE
FINISH

/POST1
*DIM, MIDX_r200_a50, ARRAY, NMODES
*VFILL, MIDX_r200_a50, RAMP, 1, 1
*DIM, FR_r200_a50, ARRAY, NMODES
*DO, I, 1, NMODES
  *GET, FR_r200_a50(I), MODE, I, FREQ
*ENDDO

*CFOPEN, geomsweep_ip_r200_a50_nu030, txt
*VWRITE
('mode      f[Hz]           (PLANE183 NDIV=64, r200 r0/2b=2, a50 2T/pi=0.5 PHI=90deg, nu=0.3, FFFF; 3 rigid modes near 0 Hz)')
*VWRITE, MIDX_r200_a50(1), FR_r200_a50(1)
(F4.0, 3X, E14.6)
*CFCLOS
FINISH
