! Generated by generate_r200_a50_nu030_ansys_decks.py
! OOP FFFF  r0/2b=2.0  2T/pi=0.5  nu=0.30  NMODES=40

FINISH
/CLEAR,NOSTART
/TITLE, Free-free OOP verify (nu=0.30) -- r200 (r0/2b=2) a50 (2T/pi=0.5, PHI=90deg)

R_i    = 6.000000
R_o    = 10.000000
PHI    = 90.000000
H      = 0.08
E_iso  = 210000000000.0
NU_iso = 0.3
RHO    = 7800.0
NDIV   = 64
NMODES = 40
PI     = 3.14159265358979

/PREP7
LOCAL, 11, 1, 0,0,0
CSYS, 11
ET, 1, SHELL281
SECTYPE, 1, SHELL
SECDATA, H, 1
MP, EX,1,E_iso $ MP, EY,1,E_iso $ MP, EZ,1,E_iso
MP, PRXY,1,NU_iso $ MP, PRYZ,1,NU_iso $ MP, PRXZ,1,NU_iso
GG = E_iso/(2*(1+NU_iso))
MP, GXY,1,GG $ MP, GYZ,1,GG $ MP, GXZ,1,GG
MP, DENS,1,RHO
CSYS, 0
PCIRC, R_i, R_o, 0, PHI
ESYS, 11
TYPE,1 $ SECNUM,1 $ MAT,1
CSYS, 11
LSEL, S, LOC, Y, 0  $ LSEL, A, LOC, Y, PHI
LESIZE, ALL, , , NDIV
LSEL, S, LOC, X, R_i $ LSEL, A, LOC, X, R_o
LESIZE, ALL, , , NDIV
ALLSEL, ALL
CSYS, 0
MSHKEY, 1 $ AMESH, ALL
! completely free (FFFF): no constraints
ALLSEL, ALL
FINISH

/SOLU
ANTYPE, MODAL
MODOPT, LANB, NMODES, -1.0, , , ON
MXPAND, NMODES, , , YES
SOLVE
FINISH

/POST1
DD   = E_iso*H**3/(12*(1-NU_iso**2))
KLIT = R_o**2*SQRT(RHO*H/DD)

*DIM, FR_r200_a50, ARRAY, NMODES
*DO, I, 1, NMODES
  *GET, FR_r200_a50(I), MODE, I, FREQ
*ENDDO

*DIM, MIDX_r200_a50, ARRAY, NMODES
*VFILL, MIDX_r200_a50, RAMP, 1, 1
KLIT2PI = 2*PI*KLIT
*DIM, OML_r200_a50, ARRAY, NMODES
*VOPER, OML_r200_a50(1), FR_r200_a50(1), MULT, KLIT2PI

*CFOPEN, geomsweep_oop_r200_a50_nu030, txt
*VWRITE
('mode      f[Hz]           Omega_lit    (SHELL281 NDIV=64, r200 r0/2b=2, a50 2T/pi=0.5 PHI=90deg, nu=0.3, FFFF; ~6 rigid modes near 0 Hz)')
*VWRITE, MIDX_r200_a50(1), FR_r200_a50(1), OML_r200_a50(1)
(F4.0, 3X, E14.6, 3X, F12.4)
*CFCLOS
FINISH
