! ansys_pcm_p41_sc_m160_2026-09-24.inp
! Piezoelectric contour-mode (n = 0 radial) FE, Paper 5 monolithic ring (2026-09-24).
! Built by build_pcm_decks_2026-09-24.py. Do not hand-edit; rebuild.
! Pre-registration: CONTOUR_MODE_N0_DERIVATION_2026-09-24.md Sec 5.
! e31 = +4.1 (deck value 4.1E-3 in mm-N-s units) C/m^2 (project convention, Papers 4-6). Modal, short circuit (both faces grounded).
! Thin-plate model (probe_piezo_contour_n0_2026-09-24.py), radial modes:
!   m1  fr 1669.6949 Hz  fa 1699.6792 Hz  split +1.7958%  keff^2 0.03497
!   m2  fr 4293.5856 Hz  fa 4319.5914 Hz  split +0.6057%  keff^2 0.01200
!   m3  fr 7235.9906 Hz  fa 7239.0710 Hz  split +0.0426%  keff^2 0.00085
!   m4  fr 10443.1644 Hz  fa 10456.6056 Hz  split +0.1287%  keff^2 0.00257
!   m5  fr 13740.1209 Hz  fa 13741.8773 Hz  split +0.0128%  keff^2 0.00026
!   m6  fr 17072.2629 Hz  fa 17080.6002 Hz  split +0.0488%  keff^2 0.00098
! UNITS: mm-N-s-tonne, real volts; Hz; CHRG in mC.
! Do not put the MAPDL failure token in this file (queue grep false-fail).
! ============================================================
FINISH
/CLEAR,NOSTART
/TITLE, Contour-mode PZT-4 ring sc e31=p41 mesh 160x24 (2026-09-24)
RI     = 100.0
RO     = 600.0
H      = 10.0
TOL    = 1.0E-3
NDIV_R = 160
NDIV_Z = 24
NMODES = 30
C11E = 1.320E5
C12E = 7.100E4
C13E = 7.300E4
C33E = 1.150E5
C44E = 7.300E4
C66E = (C11E-C12E)/2
E31  = 4.1E-3
E33  = 1.41E-2
E15  = 1.05E-2
EPS0   = 8.854E-12
X11ABS = 7.124E-9
X33ABS = 5.841E-9
X11    = X11ABS/EPS0
X33    = X33ABS/EPS0
RHO_PZT = 7.500E-9
/PREP7
ET,1,PLANE223
KEYOPT,1,1,1001
KEYOPT,1,3,1
TB,ANEL,1,1,,0
TBDATA,1,C11E,C13E,C12E,0,0,0
TBDATA,7,C33E,C13E,0,0,0
TBDATA,12,C11E,0,0,0
TBDATA,16,C44E,0,0
TBDATA,19,C66E,0
TBDATA,21,C44E
TB,PIEZ,1
TBDATA,1,0,E31,0,0,E33,0
TBDATA,7,0,E31,0,E15,0,0
TBDATA,13,0,0,E15,0,0,0
MP,PERX,1,X11
MP,PERY,1,X33
MP,PERZ,1,X11
MP,DENS,1,RHO_PZT
RECTNG,RI,RO,-H,H
ASEL,S,AREA,,1
AATT,1,,1
LSLA,S
LSEL,R,LOC,X,RI
LESIZE,ALL,,,NDIV_Z,,,,,1
LSLA,S
LSEL,R,LOC,X,RO
LESIZE,ALL,,,NDIV_Z,,,,,1
LSLA,S
LSEL,R,LOC,Y,-H
LESIZE,ALL,,,NDIV_R,,,,,1
LSLA,S
LSEL,R,LOC,Y,H
LESIZE,ALL,,,NDIV_R,,,,,1
ALLSEL,ALL
ASEL,S,AREA,,1
MSHAPE,0,2D
MSHKEY,1
AMESH,ALL
ALLSEL,ALL
*GET,NELEM,ELEM,0,COUNT
*IF,NELEM,NE,NDIV_R*NDIV_Z,THEN
  *MSG,FATAL
Mapped mesh element count does not equal NDIV_R*NDIV_Z.
*ENDIF
FINISH
/SOLU
ANTYPE,MODAL
MODOPT,LANB,NMODES,-1.0,,,ON
MXPAND,NMODES,,,NO
NSEL,S,LOC,Y,H-TOL,H+TOL
NSEL,A,LOC,Y,-H-TOL,-H+TOL
D,ALL,VOLT,0
ALLSEL,ALL
SOLVE
FINISH
/POST1
*DIM,FR1,ARRAY,NMODES
*DIM,IDXARR,ARRAY,NMODES
*DO,I,1,NMODES
  *GET,FR1(I),MODE,I,FREQ
  IDXARR(I)=I
*ENDDO
NSEL,S,LOC,X,RO-TOL,RO+TOL
NSEL,R,LOC,Y,H-TOL,H+TOL
*GET,NTOP,NODE,0,NUM,MIN
NSEL,S,LOC,X,RO-TOL,RO+TOL
NSEL,R,LOC,Y,-H-TOL,-H+TOL
*GET,NBOT,NODE,0,NUM,MIN
NSEL,S,LOC,X,RO-TOL,RO+TOL
NSEL,R,LOC,Y,-TOL,TOL
*GET,NMID,NODE,0,NUM,MIN
ALLSEL,ALL
*DIM,UXT,ARRAY,NMODES
*DIM,UYT,ARRAY,NMODES
*DIM,UXB,ARRAY,NMODES
*DIM,UYB,ARRAY,NMODES
*DIM,UXM,ARRAY,NMODES
*DO,I,1,NMODES
  SET,1,I
  *GET,UXT(I),NODE,NTOP,U,X
  *GET,UYT(I),NODE,NTOP,U,Y
  *GET,UXB(I),NODE,NBOT,U,X
  *GET,UYB(I),NODE,NBOT,U,Y
  *GET,UXM(I),NODE,NMID,U,X
*ENDDO
*CFOPEN,ansys_pcm_p41_sc_m160_modes,txt
*VWRITE
('mode  f_Hz  UX_top  UY_top  UX_bot  UY_bot  UX_mid   [r = RO; extensional: UX_top ~ +UX_bot]')
*VWRITE,IDXARR(1),FR1(1),UXT(1),UYT(1),UXB(1),UYB(1),UXM(1)
(F4.0,1X,E20.12,1X,E13.5,1X,E13.5,1X,E13.5,1X,E13.5,1X,E13.5)
*CFCLOS
FINISH
