! ansys_parashar_ff_sc_m120_2026-09-24.inp
! Parashar 2013 radially poled PIC 255 annulus, Table 2 (free-free), n = 0, SC (2026-09-24).
! Built by build_parashar_decks_2026-09-24.py. Do not hand-edit; rebuild.
! Pre-registration: PARASHAR_PHASEB_SCOUT_2026-09-24.md.
! Parashar n = 0 column, model (experiment) [kHz]: 28.291 (27.919), 131.949 (131.275), 191.186 (-)
! Poling = radial = ANSYS X. e31 = -5.6, e33 = 12.8, e15 = 10.3 C/m^2 (Table 1).
! UNITS: mm-N-s-tonne, real volts; Hz.
! Do not put the MAPDL failure token in this file (queue grep false-fail).
! ============================================================
FINISH
/CLEAR,NOSTART
/TITLE, Parashar 2013 ff n=0 SC piezo mesh 120x32 (2026-09-24)
RI     = 5.0
RO     = 12.5
H      = 2.0
TOL    = 1.0E-4
NDIV_R = 120
NDIV_Z = 32
NMODES = 30
CLAMPI = 0
C11E = 1.108E5
C12E = 6.326E4
C13E = 6.896E4
C33E = 1.108E5
C44E = 1.909E4
C66E = (C11E-C12E)/2
E31  = -5.6E-3
E33  = 12.8E-3
E15  = 10.3E-3
P33  = 1161
P11  = 1023
RHO_PIC = 7.800E-9
/PREP7
ET,1,PLANE223
KEYOPT,1,1,1001
KEYOPT,1,3,1
TB,ANEL,1,1,,0
TBDATA,1,C33E,C13E,C13E,0,0,0
TBDATA,7,C11E,C12E,0,0,0
TBDATA,12,C11E,0,0,0
TBDATA,16,C44E,0,0
TBDATA,19,C66E,0
TBDATA,21,C44E
TB,PIEZ,1
TBDATA,1,E33,0,0,E31,0,0
TBDATA,7,E31,0,0,0,E15,0
TBDATA,13,0,0,0,0,0,E15
MP,PERX,1,P33
MP,PERY,1,P11
MP,PERZ,1,P11
MP,DENS,1,RHO_PIC
RECTNG,RI,RO,-H,H
ASEL,S,AREA,,1
AATT,1,,1
LSLA,S
LSEL,R,LOC,X,RI
LESIZE,ALL,,,NDIV_Z,,,,,1
LSLA,S
LSEL,R,LOC,X,RO
LESIZE,ALL,,,NDIV_Z,,,,,1
LSLA,S
LSEL,R,LOC,Y,-H
LESIZE,ALL,,,NDIV_R,,,,,1
LSLA,S
LSEL,R,LOC,Y,H
LESIZE,ALL,,,NDIV_R,,,,,1
ALLSEL,ALL
ASEL,S,AREA,,1
MSHAPE,0,2D
MSHKEY,1
AMESH,ALL
ALLSEL,ALL
*GET,NELEM,ELEM,0,COUNT
*IF,NELEM,NE,NDIV_R*NDIV_Z,THEN
  *MSG,FATAL
Mapped mesh element count does not equal NDIV_R*NDIV_Z.
*ENDIF
FINISH
/SOLU
ANTYPE,MODAL
MODOPT,LANB,NMODES,-1.0,,,ON
MXPAND,NMODES,,,NO
! Short circuit: both electroded faces grounded. Rims insulated.
NSEL,S,LOC,Y,H-TOL,H+TOL
NSEL,A,LOC,Y,-H-TOL,-H+TOL
D,ALL,VOLT,0
ALLSEL,ALL
*IF,CLAMPI,EQ,1,THEN
  NSEL,S,LOC,X,RI-TOL,RI+TOL
  D,ALL,UX,0
  D,ALL,UY,0
  ALLSEL,ALL
*ENDIF
SOLVE
FINISH
/POST1
*DIM,FR1,ARRAY,NMODES
*DIM,IDXARR,ARRAY,NMODES
*DO,I,1,NMODES
  *GET,FR1(I),MODE,I,FREQ
  IDXARR(I)=I
*ENDDO
NSEL,S,LOC,X,RO-TOL,RO+TOL
NSEL,R,LOC,Y,H-TOL,H+TOL
*GET,NTOP,NODE,0,NUM,MIN
NSEL,S,LOC,X,RO-TOL,RO+TOL
NSEL,R,LOC,Y,-H-TOL,-H+TOL
*GET,NBOT,NODE,0,NUM,MIN
NSEL,S,LOC,X,RO-TOL,RO+TOL
NSEL,R,LOC,Y,-TOL,TOL
*GET,NMID,NODE,0,NUM,MIN
ALLSEL,ALL
*DIM,UXT,ARRAY,NMODES
*DIM,UYT,ARRAY,NMODES
*DIM,UXB,ARRAY,NMODES
*DIM,UYB,ARRAY,NMODES
*DIM,UYM,ARRAY,NMODES
*DO,I,1,NMODES
  SET,1,I
  *GET,UXT(I),NODE,NTOP,U,X
  *GET,UYT(I),NODE,NTOP,U,Y
  *GET,UXB(I),NODE,NBOT,U,X
  *GET,UYB(I),NODE,NBOT,U,Y
  *GET,UYM(I),NODE,NMID,U,Y
*ENDDO
*CFOPEN,ansys_parashar_ff_sc_m120_modes,txt
*VWRITE
('mode  f_Hz  UX_top  UY_top  UX_bot  UY_bot  UY_mid   [r = RO; flexural: UY_top ~ +UY_bot, UX_top ~ -UX_bot]')
*VWRITE,IDXARR(1),FR1(1),UXT(1),UYT(1),UXB(1),UYB(1),UYM(1)
(F4.0,1X,E20.12,1X,E13.5,1X,E13.5,1X,E13.5,1X,E13.5,1X,E13.5)
*CFCLOS
FINISH
